(set-info :smt-lib-version 2.6)
(set-logic QF_S)
(set-info :source |
Generated by: Murphy Berzish, Mitja Kulczynski, Federico Mora, Florin Manea, Joel Day, Dirk Nowotka, Vijay Ganesh, Zhengyang Lu
Generated on: 2020-10-01
Description: Translated from a collection of real-world regex queries, AutomataArk, collected by Loris D’Antoni and Fang Wang: https://github.com/lorisdanto/automatark
Application: Evaluate solvers on real-world regex queries
Target solver: Z3str3RE, CVC4, OSTRICH, Z3seq, Z3str3, Z3-Trau
Publications: Berzish, M., Kulczynski, M., Mora, F., Manea, F., Day, J. D., Nowotka, D., & Ganesh, V. (2021, July). An SMT solver for regular expressions and linear arithmetic over string length. In CAV 2021.
|)
(set-info :license "https://creativecommons.org/licenses/by/4.0/")
(set-info :category "industrial")
(set-info :status unsat)

(declare-const X String)
(assert (not (str.in_re X (re.++ (str.to_re "/SpyBuddy") (re.+ (re.union (str.to_re " ") (str.to_re "\u{9}") (str.to_re "\u{a}") (str.to_re "\u{c}") (str.to_re "\u{d}"))) (str.to_re "Alert/smi\u{a}")))))
(assert (not (str.in_re X (re.++ (re.union (re.++ ((_ re.loop 7 7) (re.++ ((_ re.loop 1 4) (re.union (re.range "0" "9") (re.range "A" "F") (re.range "a" "f"))) (str.to_re ":"))) ((_ re.loop 1 4) (re.union (re.range "0" "9") (re.range "A" "F") (re.range "a" "f")))) (re.++ ((_ re.loop 6 6) (re.++ ((_ re.loop 1 4) (re.union (re.range "0" "9") (re.range "A" "F") (re.range "a" "f"))) (str.to_re ":"))) (str.to_re ":") ((_ re.loop 1 4) (re.union (re.range "0" "9") (re.range "A" "F") (re.range "a" "f")))) (re.++ ((_ re.loop 5 5) (re.++ ((_ re.loop 1 4) (re.union (re.range "0" "9") (re.range "A" "F") (re.range "a" "f"))) (str.to_re ":"))) (str.to_re ":") (re.opt (re.++ ((_ re.loop 1 4) (re.union (re.range "0" "9") (re.range "A" "F") (re.range "a" "f"))) (str.to_re ":"))) ((_ re.loop 1 4) (re.union (re.range "0" "9") (re.range "A" "F") (re.range "a" "f")))) (re.++ ((_ re.loop 4 4) (re.++ ((_ re.loop 1 4) (re.union (re.range "0" "9") (re.range "A" "F") (re.range "a" "f"))) (str.to_re ":"))) (str.to_re ":") ((_ re.loop 0 2) (re.++ ((_ re.loop 1 4) (re.union (re.range "0" "9") (re.range "A" "F") (re.range "a" "f"))) (str.to_re ":"))) ((_ re.loop 1 4) (re.union (re.range "0" "9") (re.range "A" "F") (re.range "a" "f")))) (re.++ ((_ re.loop 3 3) (re.++ ((_ re.loop 1 4) (re.union (re.range "0" "9") (re.range "A" "F") (re.range "a" "f"))) (str.to_re ":"))) (str.to_re ":") ((_ re.loop 0 3) (re.++ ((_ re.loop 1 4) (re.union (re.range "0" "9") (re.range "A" "F") (re.range "a" "f"))) (str.to_re ":"))) ((_ re.loop 1 4) (re.union (re.range "0" "9") (re.range "A" "F") (re.range "a" "f")))) (re.++ ((_ re.loop 2 2) (re.++ ((_ re.loop 1 4) (re.union (re.range "0" "9") (re.range "A" "F") (re.range "a" "f"))) (str.to_re ":"))) (str.to_re ":") ((_ re.loop 0 4) (re.++ ((_ re.loop 1 4) (re.union (re.range "0" "9") (re.range "A" "F") (re.range "a" "f"))) (str.to_re ":"))) ((_ re.loop 1 4) (re.union (re.range "0" "9") (re.range "A" "F") (re.range "a" "f")))) (re.++ ((_ re.loop 6 6) (re.++ ((_ re.loop 1 4) (re.union (re.range "0" "9") (re.range "A" "F") (re.range "a" "f"))) (str.to_re ":"))) ((_ re.loop 3 3) (re.++ (re.union (re.++ (str.to_re "25") (re.range "0" "5")) (re.++ (str.to_re "1") ((_ re.loop 2 2) (re.range "0" "9"))) (re.++ (str.to_re "2") (re.range "0" "4") (re.range "0" "9")) ((_ re.loop 1 2) (re.range "0" "9"))) (str.to_re "."))) (re.union (re.++ (str.to_re "25") (re.range "0" "5")) (re.++ (str.to_re "1") ((_ re.loop 2 2) (re.range "0" "9"))) (re.++ (str.to_re "2") (re.range "0" "4") (re.range "0" "9")) ((_ re.loop 1 2) (re.range "0" "9")))) (re.++ ((_ re.loop 0 5) (re.++ ((_ re.loop 1 4) (re.union (re.range "0" "9") (re.range "A" "F") (re.range "a" "f"))) (str.to_re ":"))) (str.to_re ":") ((_ re.loop 3 3) (re.++ (re.union (re.++ (str.to_re "25") (re.range "0" "5")) (re.++ (str.to_re "1") ((_ re.loop 2 2) (re.range "0" "9"))) (re.++ (str.to_re "2") (re.range "0" "4") (re.range "0" "9")) ((_ re.loop 1 2) (re.range "0" "9"))) (str.to_re "."))) (re.union (re.++ (str.to_re "25") (re.range "0" "5")) (re.++ (str.to_re "1") ((_ re.loop 2 2) (re.range "0" "9"))) (re.++ (str.to_re "2") (re.range "0" "4") (re.range "0" "9")) ((_ re.loop 1 2) (re.range "0" "9")))) (re.++ (str.to_re "::") ((_ re.loop 0 5) (re.++ ((_ re.loop 1 4) (re.union (re.range "0" "9") (re.range "A" "F") (re.range "a" "f"))) (str.to_re ":"))) ((_ re.loop 3 3) (re.++ (re.union (re.++ (str.to_re "25") (re.range "0" "5")) (re.++ (str.to_re "1") ((_ re.loop 2 2) (re.range "0" "9"))) (re.++ (str.to_re "2") (re.range "0" "4") (re.range "0" "9")) ((_ re.loop 1 2) (re.range "0" "9"))) (str.to_re "."))) (re.union (re.++ (str.to_re "25") (re.range "0" "5")) (re.++ (str.to_re "1") ((_ re.loop 2 2) (re.range "0" "9"))) (re.++ (str.to_re "2") (re.range "0" "4") (re.range "0" "9")) ((_ re.loop 1 2) (re.range "0" "9")))) (re.++ ((_ re.loop 1 4) (re.union (re.range "0" "9") (re.range "A" "F") (re.range "a" "f"))) (str.to_re "::") ((_ re.loop 0 5) (re.++ ((_ re.loop 1 4) (re.union (re.range "0" "9") (re.range "A" "F") (re.range "a" "f"))) (str.to_re ":"))) ((_ re.loop 1 4) (re.union (re.range "0" "9") (re.range "A" "F") (re.range "a" "f")))) (re.++ (str.to_re "::") ((_ re.loop 0 6) (re.++ ((_ re.loop 1 4) (re.union (re.range "0" "9") (re.range "A" "F") (re.range "a" "f"))) (str.to_re ":"))) ((_ re.loop 1 4) (re.union (re.range "0" "9") (re.range "A" "F") (re.range "a" "f")))) (re.++ ((_ re.loop 1 7) (re.++ ((_ re.loop 1 4) (re.union (re.range "0" "9") (re.range "A" "F") (re.range "a" "f"))) (str.to_re ":"))) (str.to_re ":"))) (str.to_re "\u{a}")))))
(assert (str.in_re X (re.++ (str.to_re "X-Mailer") (re.+ (str.to_re ":")) (str.to_re "/cbn/earchSchwindler\u{a}"))))
(assert (str.in_re X (str.to_re "forum=From:comTencentTravelerBackAtTaCkExplorer\u{a}")))
(check-sat)

(exit)
